RAW/CMTT/fspd/CMT7T.vrp_seed-4.out
903.0474612	1.125	28.395
