RAW/CMTT/fspd/CMT7T.vrp_seed-4.sol
Route #1: 51 16 49 24 3 44 40 17
Route #2: 2 28 61 69 21 74 75
Route #3: 36 71 60 70 20 37
Route #4: 32 50 18 55 25 9
Route #5: 12 72 39 31 10 58 26
Route #6: 4 45 29 5 47 48 30
Route #7: 27 15 57 13 54 52 34 67
Route #8: 6 33 43 41 56 23 63
Route #9: 73 1 42 64 22 62 68
Route #10: 46 8 19 59 14 35 7
Route #11: 53 11 66 65 38
Cost 903.047461